SAT
4 6 -61 -114 83 32 1 -101 -55 66 -9 -105 -96 -81 109 -67 -36 -39 -45 -71 85 123 -108 59 -93 -24 26 73 21 -15 62 57 8 -70 23 -78 56 -77 -28 113 91 -104 -74 -111 5 -50 -90 -118 -79 -89 69 7 43 -94 -33 51 -30 -38 -17 72 115 2 -121 -88 -31 -68 46 -41 -102 -11 75 92 -58 -44 86 -19 -117 -49 -18 22 52 -125 95 -63 82 84 42 -13 120 -14 -97 53 -34 122 40 100 27 47 -25 -106 -16 -116 -76 80 87 -64 103 -112 60 -65 29 10 54 48 -124 -99 -98 -12 -37 20 35 107 110 -119 3 0
